p cnf 386 460
5 -6 2 21 22 0
5 -6 2 21 -22 0
5 -6 2 -21 23 0
5 -6 2 -21 -23 0
-18 -10 12 24 25 0
-18 -10 12 24 -25 0
-18 -10 12 -24 26 0
-18 -10 12 -24 -26 0
7 4 13 27 28 0
7 4 13 27 -28 0
7 4 13 -27 29 0
7 4 13 -27 -29 0
1 17 -6 30 31 0
1 17 -6 30 -31 0
1 17 -6 -30 32 0
1 17 -6 -30 -32 0
19 -18 -14 33 34 0
19 -18 -14 33 -34 0
19 -18 -14 -33 35 0
19 -18 -14 -33 -35 0
6 -5 -3 36 37 0
6 -5 -3 36 -37 0
6 -5 -3 -36 38 0
6 -5 -3 -36 -38 0
-9 11 -5 39 40 0
-9 11 -5 39 -40 0
-9 11 -5 -39 41 0
-9 11 -5 -39 -41 0
-6 -12 18 42 43 0
-6 -12 18 42 -43 0
-6 -12 18 -42 44 0
-6 -12 18 -42 -44 0
2 -16 4 45 46 0
2 -16 4 45 -46 0
2 -16 4 -45 47 0
2 -16 4 -45 -47 0
-1 17 3 48 49 0
-1 17 3 48 -49 0
-1 17 3 -48 50 0
-1 17 3 -48 -50 0
-11 -9 8 51 52 0
-11 -9 8 51 -52 0
-11 -9 8 -51 53 0
-11 -9 8 -51 -53 0
-8 4 -11 54 55 0
-8 4 -11 54 -55 0
-8 4 -11 -54 56 0
-8 4 -11 -54 -56 0
7 10 -5 57 58 0
7 10 -5 57 -58 0
7 10 -5 -57 59 0
7 10 -5 -57 -59 0
-9 -17 -15 60 61 0
-9 -17 -15 60 -61 0
-9 -17 -15 -60 62 0
-9 -17 -15 -60 -62 0
16 -12 2 63 64 0
16 -12 2 63 -64 0
16 -12 2 -63 65 0
16 -12 2 -63 -65 0
-1 -5 -12 66 67 0
-1 -5 -12 66 -67 0
-1 -5 -12 -66 68 0
-1 -5 -12 -66 -68 0
-2 4 -3 69 70 0
-2 4 -3 69 -70 0
-2 4 -3 -69 71 0
-2 4 -3 -69 -71 0
20 16 5 72 73 0
20 16 5 72 -73 0
20 16 5 -72 74 0
20 16 5 -72 -74 0
15 12 -3 75 76 0
15 12 -3 75 -76 0
15 12 -3 -75 77 0
15 12 -3 -75 -77 0
-9 -4 10 78 79 0
-9 -4 10 78 -79 0
-9 -4 10 -78 80 0
-9 -4 10 -78 -80 0
15 14 9 81 82 0
15 14 9 81 -82 0
15 14 9 -81 83 0
15 14 9 -81 -83 0
-18 9 -12 84 85 0
-18 9 -12 84 -85 0
-18 9 -12 -84 86 0
-18 9 -12 -84 -86 0
18 2 -15 87 88 0
18 2 -15 87 -88 0
18 2 -15 -87 89 0
18 2 -15 -87 -89 0
8 1 -9 90 91 0
8 1 -9 90 -91 0
8 1 -9 -90 92 0
8 1 -9 -90 -92 0
-7 18 -20 93 94 0
-7 18 -20 93 -94 0
-7 18 -20 -93 95 0
-7 18 -20 -93 -95 0
1 2 -6 96 97 0
1 2 -6 96 -97 0
1 2 -6 -96 98 0
1 2 -6 -96 -98 0
-19 5 2 99 100 0
-19 5 2 99 -100 0
-19 5 2 -99 101 0
-19 5 2 -99 -101 0
9 2 -6 102 103 0
9 2 -6 102 -103 0
9 2 -6 -102 104 0
9 2 -6 -102 -104 0
1 -11 9 105 106 0
1 -11 9 105 -106 0
1 -11 9 -105 107 0
1 -11 9 -105 -107 0
8 18 -6 108 109 0
8 18 -6 108 -109 0
8 18 -6 -108 110 0
8 18 -6 -108 -110 0
-4 -7 -14 111 112 0
-4 -7 -14 111 -112 0
-4 -7 -14 -111 113 0
-4 -7 -14 -111 -113 0
-19 3 2 114 115 0
-19 3 2 114 -115 0
-19 3 2 -114 116 0
-19 3 2 -114 -116 0
-14 -9 18 117 118 0
-14 -9 18 117 -118 0
-14 -9 18 -117 119 0
-14 -9 18 -117 -119 0
3 20 9 120 121 0
3 20 9 120 -121 0
3 20 9 -120 122 0
3 20 9 -120 -122 0
-14 -10 -11 123 124 0
-14 -10 -11 123 -124 0
-14 -10 -11 -123 125 0
-14 -10 -11 -123 -125 0
-15 -7 11 126 127 0
-15 -7 11 126 -127 0
-15 -7 11 -126 128 0
-15 -7 11 -126 -128 0
-10 -1 -13 129 130 0
-10 -1 -13 129 -130 0
-10 -1 -13 -129 131 0
-10 -1 -13 -129 -131 0
-19 -5 6 132 133 0
-19 -5 6 132 -133 0
-19 -5 6 -132 134 0
-19 -5 6 -132 -134 0
-6 2 4 135 136 0
-6 2 4 135 -136 0
-6 2 4 -135 137 0
-6 2 4 -135 -137 0
-1 -3 -19 138 139 0
-1 -3 -19 138 -139 0
-1 -3 -19 -138 140 0
-1 -3 -19 -138 -140 0
-8 -18 19 141 142 0
-8 -18 19 141 -142 0
-8 -18 19 -141 143 0
-8 -18 19 -141 -143 0
-9 17 -1 144 145 0
-9 17 -1 144 -145 0
-9 17 -1 -144 146 0
-9 17 -1 -144 -146 0
-19 -13 3 147 148 0
-19 -13 3 147 -148 0
-19 -13 3 -147 149 0
-19 -13 3 -147 -149 0
-1 12 -10 150 151 0
-1 12 -10 150 -151 0
-1 12 -10 -150 152 0
-1 12 -10 -150 -152 0
15 -3 18 153 154 0
15 -3 18 153 -154 0
15 -3 18 -153 155 0
15 -3 18 -153 -155 0
-14 4 7 156 157 0
-14 4 7 156 -157 0
-14 4 7 -156 158 0
-14 4 7 -156 -158 0
1 -12 20 159 160 0
1 -12 20 159 -160 0
1 -12 20 -159 161 0
1 -12 20 -159 -161 0
19 10 1 162 163 0
19 10 1 162 -163 0
19 10 1 -162 164 0
19 10 1 -162 -164 0
-6 1 -18 165 166 0
-6 1 -18 165 -166 0
-6 1 -18 -165 167 0
-6 1 -18 -165 -167 0
14 5 -19 168 169 0
14 5 -19 168 -169 0
14 5 -19 -168 170 0
14 5 -19 -168 -170 0
-4 9 -7 171 172 0
-4 9 -7 171 -172 0
-4 9 -7 -171 173 0
-4 9 -7 -171 -173 0
-11 5 -10 174 175 0
-11 5 -10 174 -175 0
-11 5 -10 -174 176 0
-11 5 -10 -174 -176 0
17 -4 5 177 178 0
17 -4 5 177 -178 0
17 -4 5 -177 179 0
17 -4 5 -177 -179 0
7 9 -8 180 181 0
7 9 -8 180 -181 0
7 9 -8 -180 182 0
7 9 -8 -180 -182 0
-18 -2 -12 183 184 0
-18 -2 -12 183 -184 0
-18 -2 -12 -183 185 0
-18 -2 -12 -183 -185 0
9 17 3 186 187 0
9 17 3 186 -187 0
9 17 3 -186 188 0
9 17 3 -186 -188 0
11 6 10 189 190 0
11 6 10 189 -190 0
11 6 10 -189 191 0
11 6 10 -189 -191 0
-5 12 14 192 193 0
-5 12 14 192 -193 0
-5 12 14 -192 194 0
-5 12 14 -192 -194 0
17 -12 -13 195 196 0
17 -12 -13 195 -196 0
17 -12 -13 -195 197 0
17 -12 -13 -195 -197 0
16 -14 17 198 199 0
16 -14 17 198 -199 0
16 -14 17 -198 200 0
16 -14 17 -198 -200 0
3 2 7 201 202 0
3 2 7 201 -202 0
3 2 7 -201 203 0
3 2 7 -201 -203 0
5 13 15 204 205 0
5 13 15 204 -205 0
5 13 15 -204 206 0
5 13 15 -204 -206 0
-6 -12 18 207 208 0
-6 -12 18 207 -208 0
-6 -12 18 -207 209 0
-6 -12 18 -207 -209 0
-13 7 14 210 211 0
-13 7 14 210 -211 0
-13 7 14 -210 212 0
-13 7 14 -210 -212 0
-12 16 -4 213 214 0
-12 16 -4 213 -214 0
-12 16 -4 -213 215 0
-12 16 -4 -213 -215 0
1 -12 20 216 217 0
1 -12 20 216 -217 0
1 -12 20 -216 218 0
1 -12 20 -216 -218 0
10 7 -19 219 220 0
10 7 -19 219 -220 0
10 7 -19 -219 221 0
10 7 -19 -219 -221 0
9 14 11 222 223 0
9 14 11 222 -223 0
9 14 11 -222 224 0
9 14 11 -222 -224 0
8 -2 -12 225 226 0
8 -2 -12 225 -226 0
8 -2 -12 -225 227 0
8 -2 -12 -225 -227 0
9 -10 13 228 229 0
9 -10 13 228 -229 0
9 -10 13 -228 230 0
9 -10 13 -228 -230 0
-9 10 -5 231 232 0
-9 10 -5 231 -232 0
-9 10 -5 -231 233 0
-9 10 -5 -231 -233 0
4 -9 10 234 235 0
4 -9 10 234 -235 0
4 -9 10 -234 236 0
4 -9 10 -234 -236 0
17 -10 18 237 238 0
17 -10 18 237 -238 0
17 -10 18 -237 239 0
17 -10 18 -237 -239 0
-10 -1 15 240 241 0
-10 -1 15 240 -241 0
-10 -1 15 -240 242 0
-10 -1 15 -240 -242 0
-19 -8 -17 243 244 0
-19 -8 -17 243 -244 0
-19 -8 -17 -243 245 0
-19 -8 -17 -243 -245 0
17 -4 5 246 247 0
17 -4 5 246 -247 0
17 -4 5 -246 248 0
17 -4 5 -246 -248 0
13 1 -16 249 250 0
13 1 -16 249 -250 0
13 1 -16 -249 251 0
13 1 -16 -249 -251 0
10 4 -1 252 253 0
10 4 -1 252 -253 0
10 4 -1 -252 254 0
10 4 -1 -252 -254 0
11 16 -20 255 256 0
11 16 -20 255 -256 0
11 16 -20 -255 257 0
11 16 -20 -255 -257 0
-13 6 10 258 259 0
-13 6 10 258 -259 0
-13 6 10 -258 260 0
-13 6 10 -258 -260 0
-13 6 -10 261 262 0
-13 6 -10 261 -262 0
-13 6 -10 -261 263 0
-13 6 -10 -261 -263 0
7 -3 13 264 265 0
7 -3 13 264 -265 0
7 -3 13 -264 266 0
7 -3 13 -264 -266 0
17 14 6 267 268 0
17 14 6 267 -268 0
17 14 6 -267 269 0
17 14 6 -267 -269 0
-14 17 5 270 271 0
-14 17 5 270 -271 0
-14 17 5 -270 272 0
-14 17 5 -270 -272 0
11 8 1 273 274 0
11 8 1 273 -274 0
11 8 1 -273 275 0
11 8 1 -273 -275 0
-17 -15 -14 276 277 0
-17 -15 -14 276 -277 0
-17 -15 -14 -276 278 0
-17 -15 -14 -276 -278 0
17 20 4 279 280 0
17 20 4 279 -280 0
17 20 4 -279 281 0
17 20 4 -279 -281 0
1 4 -13 282 283 0
1 4 -13 282 -283 0
1 4 -13 -282 284 0
1 4 -13 -282 -284 0
-19 1 2 285 286 0
-19 1 2 285 -286 0
-19 1 2 -285 287 0
-19 1 2 -285 -287 0
8 -10 12 288 289 0
8 -10 12 288 -289 0
8 -10 12 -288 290 0
8 -10 12 -288 -290 0
13 -10 -16 291 292 0
13 -10 -16 291 -292 0
13 -10 -16 -291 293 0
13 -10 -16 -291 -293 0
294 295 297 301 309 0
294 295 297 301 -309 0
294 295 297 -301 310 0
294 295 297 -301 -310 0
294 295 -297 302 311 0
294 295 -297 302 -311 0
294 295 -297 -302 312 0
294 295 -297 -302 -312 0
294 -295 298 303 313 0
294 -295 298 303 -313 0
294 -295 298 -303 314 0
294 -295 298 -303 -314 0
294 -295 -298 304 315 0
294 -295 -298 304 -315 0
294 -295 -298 -304 316 0
294 -295 -298 -304 -316 0
-294 296 299 305 317 0
-294 296 299 305 -317 0
-294 296 299 -305 318 0
-294 296 299 -305 -318 0
-294 296 -299 306 319 0
-294 296 -299 306 -319 0
-294 296 -299 -306 320 0
-294 296 -299 -306 -320 0
-294 -296 300 307 321 0
-294 -296 300 307 -321 0
-294 -296 300 -307 322 0
-294 -296 300 -307 -322 0
-294 -296 -300 308 323 0
-294 -296 -300 308 -323 0
-294 -296 -300 -308 324 0
-294 -296 -300 -308 -324 0
325 326 328 332 340 0
325 326 328 332 -340 0
325 326 328 -332 341 0
325 326 328 -332 -341 0
325 326 -328 333 342 0
325 326 -328 333 -342 0
325 326 -328 -333 343 0
325 326 -328 -333 -343 0
325 -326 329 334 344 0
325 -326 329 334 -344 0
325 -326 329 -334 345 0
325 -326 329 -334 -345 0
325 -326 -329 335 346 0
325 -326 -329 335 -346 0
325 -326 -329 -335 347 0
325 -326 -329 -335 -347 0
-325 327 330 336 348 0
-325 327 330 336 -348 0
-325 327 330 -336 349 0
-325 327 330 -336 -349 0
-325 327 -330 337 350 0
-325 327 -330 337 -350 0
-325 327 -330 -337 351 0
-325 327 -330 -337 -351 0
-325 -327 331 338 352 0
-325 -327 331 338 -352 0
-325 -327 331 -338 353 0
-325 -327 331 -338 -353 0
-325 -327 -331 339 354 0
-325 -327 -331 339 -354 0
-325 -327 -331 -339 355 0
-325 -327 -331 -339 -355 0
356 357 359 363 371 0
356 357 359 363 -371 0
356 357 359 -363 372 0
356 357 359 -363 -372 0
356 357 -359 364 373 0
356 357 -359 364 -373 0
356 357 -359 -364 374 0
356 357 -359 -364 -374 0
356 -357 360 365 375 0
356 -357 360 365 -375 0
356 -357 360 -365 376 0
356 -357 360 -365 -376 0
356 -357 -360 366 377 0
356 -357 -360 366 -377 0
356 -357 -360 -366 378 0
356 -357 -360 -366 -378 0
-356 358 361 367 379 0
-356 358 361 367 -379 0
-356 358 361 -367 380 0
-356 358 361 -367 -380 0
-356 358 -361 368 381 0
-356 358 -361 368 -381 0
-356 358 -361 -368 382 0
-356 358 -361 -368 -382 0
-356 -358 362 369 383 0
-356 -358 362 369 -383 0
-356 -358 362 -369 384 0
-356 -358 362 -369 -384 0
-356 -358 -362 370 385 0
-356 -358 -362 370 -385 0
-356 -358 -362 -370 386 0
-356 -358 -362 -370 -386 0

